33D32945 STP File, STP Format Version 1.0

SECTION Comment
Name    "Series C" 
Creator "A. M. Costa" 
Format  "Z.H. Fu and J. K. Hao"
Remark  "Sparse graph with random weights"
#TotalEdgeCost 13718
#BudgetFraction 100
END 

SECTION Graph 
Nodes 500 
Edges 2500 
Root 1
Budget 137
HopLimit 5
E 1 17 4 
E 1 32 5 
E 1 33 5 
E 1 106 2 
E 1 149 6 
E 1 210 6 
E 1 383 4 
E 1 449 9 
E 1 461 7 
E 1 489 9 
E 2 81 5 
E 2 82 1 
E 2 126 4 
E 2 224 7 
E 2 271 6 
E 2 297 5 
E 2 333 6 
E 2 335 9 
E 2 394 10 
E 2 400 7 
E 2 449 4 
E 3 13 10 
E 3 25 10 
E 3 34 8 
E 3 95 5 
E 3 125 8 
E 3 161 7 
E 3 223 4 
E 3 228 10 
E 3 247 1 
E 3 330 8 
E 3 374 3 
E 3 403 5 
E 3 492 9 
E 3 499 2 
E 4 164 2 
E 4 189 5 
E 4 211 9 
E 4 400 7 
E 4 454 9 
E 5 8 6 
E 5 42 6 
E 5 60 5 
E 5 71 7 
E 5 128 2 
E 5 231 7 
E 5 261 8 
E 5 282 4 
E 5 316 8 
E 5 328 7 
E 5 347 8 
E 5 407 1 
E 5 480 9 
E 6 21 4 
E 6 22 6 
E 6 100 9 
E 6 108 9 
E 6 132 2 
E 6 200 1 
E 6 267 1 
E 6 440 4 
E 7 43 3 
E 7 161 6 
E 7 263 1 
E 7 306 7 
E 7 318 3 
E 7 342 4 
E 7 436 2 
E 7 483 4 
E 8 43 6 
E 8 73 3 
E 8 88 6 
E 8 95 9 
E 8 107 6 
E 8 135 3 
E 8 146 9 
E 8 172 5 
E 8 204 5 
E 8 208 3 
E 8 235 1 
E 8 265 7 
E 8 350 1 
E 8 353 10 
E 8 396 8 
E 8 421 4 
E 8 475 8 
E 8 479 3 
E 9 19 9 
E 9 90 2 
E 9 130 2 
E 9 312 4 
E 9 374 9 
E 9 403 2 
E 9 414 7 
E 9 486 1 
E 10 39 2 
E 10 50 7 
E 10 100 9 
E 10 114 9 
E 10 139 6 
E 10 208 7 
E 10 211 9 
E 10 267 1 
E 10 297 10 
E 10 326 2 
E 10 433 3 
E 10 443 6 
E 10 444 1 
E 11 91 6 
E 11 114 1 
E 11 117 8 
E 11 171 5 
E 11 248 5 
E 11 258 4 
E 11 271 3 
E 11 311 6 
E 11 367 8 
E 11 368 10 
E 11 393 4 
E 11 428 3 
E 12 76 10 
E 12 88 1 
E 12 104 3 
E 12 121 10 
E 12 222 3 
E 12 241 1 
E 12 350 2 
E 12 494 10 
E 13 124 3 
E 13 130 4 
E 13 140 3 
E 13 149 4 
E 13 372 1 
E 13 374 2 
E 13 386 4 
E 14 40 2 
E 14 82 7 
E 14 218 8 
E 14 273 3 
E 14 319 7 
E 14 347 2 
E 14 388 1 
E 14 434 7 
E 14 461 8 
E 15 115 8 
E 15 193 2 
E 15 340 9 
E 15 465 10 
E 15 483 1 
E 16 45 4 
E 16 107 5 
E 16 108 1 
E 16 117 8 
E 16 181 8 
E 16 212 4 
E 16 314 10 
E 16 326 10 
E 16 347 5 
E 16 360 10 
E 16 391 7 
E 16 419 7 
E 16 424 6 
E 16 462 3 
E 16 488 3 
E 17 27 6 
E 17 36 5 
E 17 39 1 
E 17 150 7 
E 17 172 4 
E 17 191 2 
E 17 196 10 
E 17 304 2 
E 17 316 2 
E 17 328 7 
E 17 365 10 
E 17 410 1 
E 17 444 3 
E 18 37 5 
E 18 94 8 
E 18 111 10 
E 18 129 7 
E 18 181 4 
E 18 223 3 
E 18 266 9 
E 18 297 10 
E 18 309 10 
E 18 417 5 
E 18 427 8 
E 18 442 2 
E 18 458 3 
E 19 38 8 
E 19 196 9 
E 19 220 5 
E 19 229 9 
E 19 241 8 
E 19 305 7 
E 19 309 8 
E 19 335 10 
E 19 407 5 
E 19 462 1 
E 20 36 9 
E 20 39 10 
E 20 90 9 
E 20 92 10 
E 20 118 7 
E 20 176 8 
E 20 225 7 
E 20 226 4 
E 20 393 8 
E 20 418 9 
E 20 425 5 
E 21 28 10 
E 21 86 6 
E 21 239 8 
E 21 250 4 
E 21 287 3 
E 21 370 5 
E 21 395 8 
E 21 421 1 
E 21 474 8 
E 22 32 10 
E 22 72 5 
E 22 159 9 
E 22 209 8 
E 22 318 1 
E 22 329 2 
E 22 344 3 
E 22 405 10 
E 22 446 2 
E 22 467 7 
E 22 482 4 
E 23 30 6 
E 23 137 9 
E 23 255 9 
E 23 260 2 
E 23 374 1 
E 23 412 6 
E 23 457 1 
E 23 478 5 
E 23 482 10 
E 24 85 9 
E 24 105 6 
E 24 109 9 
E 24 113 4 
E 24 127 6 
E 24 137 1 
E 24 211 4 
E 24 395 10 
E 24 482 1 
E 25 96 8 
E 25 138 6 
E 25 164 3 
E 25 182 8 
E 25 226 8 
E 25 284 6 
E 25 370 2 
E 25 435 4 
E 25 474 1 
E 26 28 9 
E 26 122 7 
E 26 177 10 
E 26 251 8 
E 26 274 2 
E 26 289 7 
E 26 298 8 
E 26 322 4 
E 26 347 1 
E 26 348 10 
E 26 378 7 
E 26 393 3 
E 27 33 7 
E 27 41 7 
E 27 73 7 
E 27 87 7 
E 27 98 5 
E 27 114 1 
E 27 126 8 
E 27 148 5 
E 27 179 10 
E 27 196 2 
E 27 305 8 
E 27 365 7 
E 27 445 6 
E 27 470 6 
E 28 59 6 
E 28 141 7 
E 28 155 9 
E 28 198 9 
E 28 236 10 
E 28 259 6 
E 28 377 8 
E 28 379 6 
E 28 421 1 
E 29 40 3 
E 29 70 4 
E 29 359 5 
E 29 413 4 
E 29 439 10 
E 29 461 8 
E 30 122 1 
E 30 165 8 
E 30 199 3 
E 30 339 8 
E 30 481 5 
E 31 70 6 
E 31 85 4 
E 31 120 10 
E 31 135 2 
E 31 173 2 
E 31 185 10 
E 31 216 6 
E 31 262 4 
E 31 285 6 
E 31 288 2 
E 31 293 4 
E 31 313 5 
E 31 460 5 
E 32 82 1 
E 32 167 1 
E 32 179 6 
E 32 209 3 
E 32 314 8 
E 32 321 9 
E 32 375 10 
E 32 445 4 
E 33 41 1 
E 33 95 10 
E 33 133 7 
E 33 134 5 
E 33 144 3 
E 33 171 4 
E 33 195 1 
E 33 228 4 
E 33 339 2 
E 33 415 2 
E 34 80 2 
E 34 90 3 
E 34 123 5 
E 34 211 3 
E 34 214 3 
E 34 298 9 
E 34 303 9 
E 34 323 3 
E 34 353 3 
E 34 366 7 
E 34 469 6 
E 35 74 2 
E 35 75 10 
E 35 87 3 
E 35 104 2 
E 35 134 10 
E 35 155 7 
E 35 185 1 
E 35 186 4 
E 35 216 4 
E 35 227 10 
E 35 318 2 
E 36 43 10 
E 36 59 10 
E 36 169 1 
E 36 246 8 
E 36 259 9 
E 36 305 8 
E 36 415 8 
E 36 466 2 
E 37 48 10 
E 37 150 6 
E 37 223 1 
E 37 265 4 
E 37 296 7 
E 37 342 4 
E 37 396 10 
E 37 466 4 
E 38 171 5 
E 38 319 1 
E 38 334 2 
E 38 423 10 
E 38 430 6 
E 38 441 6 
E 38 498 7 
E 39 61 7 
E 39 102 3 
E 39 144 6 
E 39 166 1 
E 39 181 3 
E 39 297 8 
E 39 315 1 
E 39 320 3 
E 39 359 6 
E 39 425 6 
E 39 435 6 
E 40 43 3 
E 40 76 7 
E 40 92 2 
E 40 197 3 
E 40 212 7 
E 40 221 10 
E 40 287 10 
E 40 306 5 
E 40 314 5 
E 40 374 7 
E 40 464 7 
E 41 63 2 
E 41 80 8 
E 41 97 4 
E 41 98 7 
E 41 137 1 
E 41 291 4 
E 41 348 6 
E 41 499 10 
E 42 108 5 
E 42 121 8 
E 42 157 6 
E 42 183 8 
E 42 201 8 
E 42 231 5 
E 42 250 7 
E 42 298 10 
E 42 301 10 
E 42 354 3 
E 42 438 6 
E 42 496 10 
E 43 135 5 
E 43 163 8 
E 43 168 1 
E 43 181 5 
E 43 249 4 
E 43 322 10 
E 43 383 7 
E 43 441 3 
E 43 448 7 
E 43 451 6 
E 43 461 9 
E 43 463 6 
E 43 474 2 
E 43 481 1 
E 44 75 8 
E 44 145 8 
E 44 162 8 
E 44 167 4 
E 44 265 8 
E 44 345 4 
E 44 347 8 
E 44 379 7 
E 44 492 6 
E 44 494 7 
E 45 55 6 
E 45 70 8 
E 45 84 8 
E 45 97 2 
E 45 100 3 
E 45 103 4 
E 45 146 5 
E 45 160 4 
E 45 287 10 
E 45 313 4 
E 45 393 5 
E 45 420 1 
E 45 495 5 
E 46 68 2 
E 46 77 1 
E 46 121 1 
E 46 250 5 
E 46 390 1 
E 46 408 4 
E 46 429 7 
E 46 435 1 
E 47 128 6 
E 47 186 3 
E 47 193 5 
E 47 296 6 
E 47 316 9 
E 47 352 10 
E 47 381 6 
E 47 471 6 
E 48 160 7 
E 48 174 1 
E 48 176 6 
E 48 409 8 
E 48 433 2 
E 48 470 7 
E 49 239 4 
E 49 408 5 
E 49 451 4 
E 50 59 9 
E 50 77 10 
E 50 115 9 
E 50 179 5 
E 50 196 4 
E 50 204 4 
E 50 308 3 
E 50 316 1 
E 50 318 10 
E 50 329 1 
E 50 376 9 
E 50 396 2 
E 50 482 4 
E 51 69 8 
E 51 91 10 
E 51 173 9 
E 51 197 10 
E 51 250 8 
E 51 252 2 
E 51 356 7 
E 51 358 2 
E 51 373 2 
E 51 470 2 
E 52 65 3 
E 52 105 5 
E 52 121 9 
E 52 147 7 
E 52 254 10 
E 52 256 10 
E 52 263 5 
E 52 268 5 
E 52 280 3 
E 52 360 10 
E 52 370 7 
E 53 54 6 
E 53 173 10 
E 53 175 8 
E 53 208 9 
E 53 225 8 
E 53 335 2 
E 53 423 2 
E 53 440 1 
E 54 99 9 
E 54 160 7 
E 54 218 10 
E 54 317 8 
E 54 319 8 
E 54 500 9 
E 55 125 7 
E 55 149 6 
E 55 166 2 
E 55 204 10 
E 55 273 4 
E 55 375 5 
E 55 427 3 
E 55 451 4 
E 55 453 10 
E 55 482 2 
E 55 492 3 
E 56 73 5 
E 56 116 1 
E 56 147 8 
E 56 177 4 
E 56 253 8 
E 56 271 9 
E 56 303 5 
E 56 307 10 
E 56 341 4 
E 56 407 10 
E 57 119 5 
E 57 194 7 
E 57 198 1 
E 57 239 8 
E 57 248 10 
E 57 287 1 
E 57 381 10 
E 57 393 9 
E 57 447 2 
E 57 468 10 
E 57 495 2 
E 58 84 10 
E 58 121 6 
E 58 156 1 
E 58 161 4 
E 58 322 10 
E 58 334 5 
E 58 446 10 
E 58 477 2 
E 58 494 2 
E 58 499 3 
E 59 73 3 
E 59 101 6 
E 59 242 3 
E 59 253 8 
E 59 274 8 
E 59 280 5 
E 59 347 2 
E 59 413 1 
E 59 416 4 
E 59 447 8 
E 59 489 5 
E 60 80 7 
E 60 121 8 
E 60 131 5 
E 60 150 4 
E 60 192 8 
E 60 219 4 
E 60 262 10 
E 60 306 3 
E 60 427 7 
E 60 430 6 
E 61 66 1 
E 61 99 5 
E 61 102 5 
E 61 135 3 
E 61 137 6 
E 61 155 6 
E 61 172 4 
E 61 307 7 
E 61 317 6 
E 61 331 1 
E 61 379 7 
E 61 391 2 
E 61 398 8 
E 61 411 1 
E 61 453 9 
E 61 499 6 
E 62 69 1 
E 62 73 5 
E 62 166 1 
E 62 217 6 
E 62 432 7 
E 63 90 6 
E 63 108 8 
E 63 140 10 
E 63 182 7 
E 63 185 9 
E 63 221 5 
E 63 264 6 
E 63 399 2 
E 64 93 8 
E 64 131 6 
E 64 356 8 
E 64 380 2 
E 64 401 8 
E 64 415 8 
E 64 466 3 
E 65 122 2 
E 65 211 1 
E 65 232 7 
E 65 245 10 
E 65 318 4 
E 65 359 8 
E 65 379 8 
E 65 383 4 
E 66 78 10 
E 66 111 3 
E 66 183 5 
E 66 230 7 
E 66 373 3 
E 66 396 3 
E 66 456 4 
E 67 68 4 
E 67 69 5 
E 67 79 2 
E 67 250 6 
E 67 303 1 
E 67 386 8 
E 67 478 6 
E 68 80 1 
E 68 165 6 
E 68 167 7 
E 68 216 4 
E 68 233 9 
E 68 456 9 
E 68 470 8 
E 69 128 7 
E 69 158 2 
E 69 160 9 
E 69 181 3 
E 69 231 4 
E 69 253 6 
E 69 316 8 
E 69 335 6 
E 69 384 7 
E 69 446 5 
E 70 491 3 
E 71 92 5 
E 71 134 3 
E 71 193 9 
E 71 203 6 
E 71 269 7 
E 71 279 10 
E 71 420 4 
E 71 435 2 
E 71 496 7 
E 72 78 3 
E 72 106 7 
E 72 127 1 
E 72 129 6 
E 72 201 5 
E 72 231 10 
E 72 277 2 
E 72 414 3 
E 72 419 6 
E 72 493 2 
E 73 91 6 
E 73 126 10 
E 73 183 2 
E 73 187 10 
E 73 290 2 
E 73 321 4 
E 73 391 2 
E 73 471 4 
E 74 91 2 
E 74 143 5 
E 74 211 9 
E 74 276 3 
E 74 296 3 
E 74 370 5 
E 74 393 4 
E 75 166 2 
E 75 217 7 
E 75 346 3 
E 75 365 6 
E 75 373 3 
E 75 432 10 
E 76 222 9 
E 76 401 3 
E 76 465 2 
E 76 475 7 
E 76 485 10 
E 77 134 10 
E 77 139 6 
E 77 143 8 
E 77 241 8 
E 77 285 6 
E 77 316 9 
E 77 337 5 
E 77 408 2 
E 77 422 10 
E 77 449 2 
E 77 450 6 
E 77 462 1 
E 77 498 10 
E 78 210 7 
E 78 230 1 
E 78 328 2 
E 78 343 2 
E 78 473 7 
E 78 474 9 
E 79 116 10 
E 79 155 10 
E 79 229 8 
E 79 365 4 
E 79 487 8 
E 80 156 4 
E 80 245 4 
E 80 252 10 
E 80 287 9 
E 80 322 3 
E 81 100 3 
E 81 173 7 
E 81 174 8 
E 81 340 8 
E 81 353 4 
E 81 367 7 
E 81 452 1 
E 82 191 10 
E 82 321 5 
E 82 398 9 
E 82 403 9 
E 82 424 5 
E 82 449 2 
E 82 453 6 
E 82 456 2 
E 83 84 3 
E 83 159 4 
E 83 314 1 
E 83 356 10 
E 83 493 8 
E 84 191 4 
E 84 246 3 
E 84 251 7 
E 84 337 3 
E 84 368 10 
E 84 437 4 
E 84 439 3 
E 84 463 2 
E 84 466 2 
E 85 129 6 
E 85 130 4 
E 85 179 5 
E 85 196 4 
E 85 241 9 
E 85 350 6 
E 85 376 6 
E 85 417 5 
E 85 428 8 
E 85 431 1 
E 85 482 2 
E 86 287 7 
E 86 377 8 
E 86 378 6 
E 86 405 8 
E 86 435 4 
E 86 444 5 
E 87 93 4 
E 87 113 7 
E 87 137 8 
E 87 139 4 
E 87 196 9 
E 87 219 5 
E 87 379 2 
E 87 385 7 
E 87 440 10 
E 87 474 4 
E 88 90 3 
E 88 150 3 
E 88 242 1 
E 88 283 1 
E 88 476 5 
E 89 120 4 
E 89 172 2 
E 89 178 9 
E 89 253 9 
E 89 256 5 
E 89 302 9 
E 89 315 7 
E 89 441 9 
E 89 442 7 
E 90 167 8 
E 90 189 7 
E 90 277 9 
E 90 342 10 
E 90 355 9 
E 90 356 6 
E 90 472 6 
E 91 96 9 
E 91 97 9 
E 91 145 4 
E 91 196 5 
E 91 233 8 
E 91 272 10 
E 91 313 2 
E 91 365 10 
E 91 375 2 
E 91 399 10 
E 92 211 5 
E 92 212 5 
E 92 219 2 
E 92 331 5 
E 92 394 9 
E 93 206 5 
E 93 261 9 
E 93 292 6 
E 93 343 2 
E 93 449 6 
E 93 480 8 
E 94 154 4 
E 94 198 4 
E 94 232 6 
E 94 238 1 
E 94 246 9 
E 94 269 8 
E 94 352 10 
E 94 364 7 
E 94 368 1 
E 94 446 3 
E 94 466 6 
E 95 169 6 
E 95 191 6 
E 95 303 6 
E 96 107 7 
E 96 182 9 
E 96 269 7 
E 96 284 2 
E 96 343 10 
E 96 360 5 
E 96 428 5 
E 96 473 4 
E 96 483 7 
E 96 489 3 
E 97 159 5 
E 97 214 2 
E 97 253 5 
E 97 336 1 
E 97 496 3 
E 98 342 6 
E 98 346 1 
E 99 121 6 
E 99 396 6 
E 99 410 10 
E 99 436 6 
E 100 105 7 
E 100 210 10 
E 100 214 7 
E 100 347 5 
E 100 395 9 
E 100 460 3 
E 100 487 10 
E 101 119 2 
E 101 161 4 
E 101 188 4 
E 101 193 3 
E 101 256 1 
E 101 268 3 
E 101 293 4 
E 101 333 10 
E 101 385 5 
E 101 422 10 
E 101 476 4 
E 101 493 5 
E 102 124 9 
E 102 135 1 
E 102 161 1 
E 102 197 1 
E 102 232 9 
E 102 245 4 
E 102 314 4 
E 102 315 5 
E 102 417 3 
E 102 453 8 
E 102 456 5 
E 103 152 9 
E 103 161 1 
E 103 170 2 
E 103 244 1 
E 103 394 4 
E 103 444 3 
E 103 447 9 
E 104 141 1 
E 104 147 6 
E 104 308 8 
E 104 384 3 
E 104 402 5 
E 104 454 5 
E 104 464 3 
E 105 123 4 
E 105 218 5 
E 105 282 1 
E 105 325 5 
E 105 326 2 
E 105 334 4 
E 105 347 1 
E 105 390 8 
E 106 141 10 
E 106 160 10 
E 106 191 7 
E 106 227 5 
E 106 230 2 
E 106 283 4 
E 106 311 8 
E 106 365 8 
E 107 133 7 
E 107 170 10 
E 107 187 9 
E 107 229 3 
E 107 232 4 
E 107 239 6 
E 107 307 8 
E 107 357 10 
E 107 497 8 
E 108 119 7 
E 108 182 1 
E 108 277 1 
E 108 291 6 
E 108 307 10 
E 108 358 7 
E 108 396 3 
E 108 472 2 
E 109 138 2 
E 109 157 4 
E 109 223 10 
E 109 299 8 
E 109 306 2 
E 109 379 10 
E 110 138 2 
E 110 152 6 
E 110 155 10 
E 110 231 4 
E 110 271 6 
E 110 290 8 
E 110 344 4 
E 110 369 6 
E 110 434 9 
E 111 114 5 
E 111 166 3 
E 111 168 3 
E 111 200 7 
E 111 208 10 
E 111 230 3 
E 111 234 2 
E 111 244 10 
E 111 275 10 
E 111 288 8 
E 111 382 3 
E 111 483 3 
E 112 201 8 
E 112 291 9 
E 112 295 8 
E 112 301 6 
E 112 306 7 
E 112 384 2 
E 112 433 1 
E 112 467 8 
E 113 138 4 
E 113 151 6 
E 113 215 1 
E 113 260 6 
E 113 280 4 
E 113 294 9 
E 113 308 8 
E 113 365 2 
E 113 368 4 
E 113 386 5 
E 113 392 5 
E 113 445 4 
E 113 454 8 
E 113 463 2 
E 113 485 3 
E 114 144 1 
E 114 203 7 
E 114 399 3 
E 114 477 5 
E 114 497 5 
E 115 180 7 
E 115 217 2 
E 115 300 1 
E 115 456 8 
E 115 472 3 
E 115 495 9 
E 116 240 2 
E 116 247 9 
E 116 260 4 
E 116 279 1 
E 116 351 2 
E 116 368 1 
E 116 496 10 
E 117 122 6 
E 117 171 1 
E 117 193 7 
E 117 203 6 
E 117 389 8 
E 117 452 7 
E 117 500 3 
E 118 181 5 
E 118 212 7 
E 118 213 10 
E 118 214 4 
E 118 215 6 
E 118 288 3 
E 118 341 2 
E 118 373 3 
E 118 403 7 
E 119 243 10 
E 119 246 4 
E 119 256 4 
E 119 274 5 
E 119 323 3 
E 119 331 1 
E 119 377 4 
E 119 378 4 
E 119 386 4 
E 119 419 6 
E 120 124 8 
E 120 127 9 
E 120 193 3 
E 120 200 10 
E 120 211 7 
E 120 235 1 
E 120 237 8 
E 120 367 5 
E 120 383 2 
E 120 475 9 
E 121 176 2 
E 121 194 7 
E 121 201 6 
E 121 292 9 
E 121 318 3 
E 121 339 9 
E 121 453 8 
E 121 476 7 
E 122 245 10 
E 122 298 7 
E 122 299 5 
E 122 301 2 
E 122 463 7 
E 123 252 6 
E 123 281 2 
E 123 297 3 
E 123 361 8 
E 124 176 7 
E 124 192 10 
E 124 298 2 
E 124 318 4 
E 124 372 3 
E 124 401 9 
E 124 417 10 
E 124 419 7 
E 125 142 6 
E 125 164 5 
E 125 226 5 
E 125 293 8 
E 125 340 9 
E 125 349 7 
E 125 360 1 
E 125 367 8 
E 125 386 4 
E 125 388 2 
E 125 474 8 
E 126 186 9 
E 126 245 10 
E 126 368 10 
E 126 401 7 
E 126 415 6 
E 126 440 4 
E 126 457 10 
E 127 194 3 
E 127 229 9 
E 127 230 4 
E 127 264 9 
E 127 278 3 
E 127 339 9 
E 127 385 5 
E 127 439 3 
E 128 199 1 
E 128 213 5 
E 128 325 3 
E 128 413 4 
E 128 450 7 
E 128 482 10 
E 128 484 9 
E 129 150 3 
E 129 257 5 
E 129 265 2 
E 129 270 10 
E 129 344 8 
E 129 468 4 
E 129 497 7 
E 130 152 8 
E 130 163 2 
E 130 164 2 
E 130 178 1 
E 130 206 4 
E 130 224 1 
E 130 328 10 
E 130 351 2 
E 130 400 10 
E 130 416 5 
E 130 433 5 
E 131 198 2 
E 131 265 10 
E 131 266 9 
E 131 330 2 
E 131 373 7 
E 132 135 10 
E 132 166 7 
E 132 183 3 
E 132 204 4 
E 132 273 8 
E 132 326 9 
E 132 431 5 
E 132 432 3 
E 132 471 6 
E 133 164 6 
E 133 254 1 
E 133 283 7 
E 133 334 10 
E 133 403 5 
E 133 407 8 
E 133 438 3 
E 133 445 5 
E 133 500 9 
E 134 170 1 
E 134 204 5 
E 134 241 4 
E 134 272 10 
E 134 308 8 
E 134 390 9 
E 134 394 2 
E 134 414 5 
E 134 426 6 
E 135 140 1 
E 135 147 2 
E 135 184 7 
E 135 237 3 
E 135 284 10 
E 135 315 2 
E 135 326 3 
E 135 354 5 
E 135 393 3 
E 135 472 5 
E 135 481 10 
E 136 284 8 
E 136 306 3 
E 136 313 4 
E 136 334 5 
E 136 378 3 
E 136 487 9 
E 137 221 10 
E 137 293 7 
E 137 339 1 
E 137 349 10 
E 137 477 5 
E 137 490 1 
E 137 499 3 
E 138 180 4 
E 138 193 9 
E 138 202 4 
E 138 300 6 
E 138 397 4 
E 138 421 6 
E 138 430 4 
E 138 446 2 
E 138 467 5 
E 139 174 4 
E 139 175 6 
E 139 190 1 
E 139 235 7 
E 139 249 5 
E 139 252 9 
E 139 256 3 
E 139 362 3 
E 139 380 5 
E 140 192 8 
E 140 210 1 
E 140 353 3 
E 140 360 2 
E 140 364 2 
E 140 377 5 
E 140 422 8 
E 140 478 7 
E 141 144 5 
E 141 185 3 
E 141 262 7 
E 141 279 2 
E 141 345 3 
E 141 377 5 
E 141 450 6 
E 142 147 3 
E 142 194 4 
E 142 283 7 
E 142 289 5 
E 142 308 9 
E 142 365 5 
E 142 429 3 
E 142 430 2 
E 142 431 2 
E 142 443 10 
E 142 464 7 
E 142 465 4 
E 142 485 5 
E 143 149 2 
E 143 179 4 
E 143 282 5 
E 143 284 2 
E 143 292 1 
E 143 301 3 
E 143 307 5 
E 143 384 2 
E 143 410 4 
E 143 426 2 
E 143 481 3 
E 144 242 5 
E 144 309 8 
E 144 400 4 
E 144 404 1 
E 144 428 4 
E 144 432 1 
E 144 435 10 
E 144 451 9 
E 144 491 8 
E 145 153 8 
E 145 171 8 
E 145 245 9 
E 145 346 6 
E 145 403 8 
E 145 447 9 
E 146 179 9 
E 146 328 6 
E 146 420 2 
E 146 427 1 
E 147 198 7 
E 147 209 2 
E 147 249 8 
E 147 288 8 
E 147 496 1 
E 148 197 8 
E 148 300 10 
E 148 302 9 
E 148 373 6 
E 148 407 7 
E 148 443 6 
E 149 159 10 
E 149 162 10 
E 149 312 8 
E 149 383 7 
E 149 384 6 
E 149 408 8 
E 149 441 10 
E 150 153 7 
E 150 190 9 
E 150 250 7 
E 150 288 6 
E 150 311 8 
E 150 313 9 
E 150 415 6 
E 150 485 4 
E 150 486 9 
E 151 261 9 
E 151 333 9 
E 151 378 9 
E 151 428 8 
E 151 454 1 
E 151 477 4 
E 152 172 3 
E 152 224 5 
E 152 312 5 
E 152 313 10 
E 152 322 1 
E 152 354 5 
E 152 400 6 
E 153 204 10 
E 153 241 10 
E 153 354 5 
E 153 397 10 
E 153 414 2 
E 153 416 1 
E 153 445 6 
E 154 160 5 
E 154 166 10 
E 154 371 6 
E 154 461 10 
E 154 489 2 
E 155 234 3 
E 155 285 8 
E 155 436 9 
E 155 466 8 
E 155 493 1 
E 156 282 10 
E 156 319 4 
E 156 368 9 
E 156 424 4 
E 156 483 4 
E 157 248 10 
E 157 313 1 
E 157 353 2 
E 157 429 1 
E 158 171 10 
E 158 174 10 
E 158 188 6 
E 158 223 5 
E 158 294 6 
E 158 338 3 
E 158 430 1 
E 158 447 8 
E 158 491 3 
E 159 166 1 
E 159 348 9 
E 159 368 3 
E 159 396 7 
E 159 411 5 
E 159 416 1 
E 159 433 3 
E 159 469 8 
E 160 222 6 
E 160 367 6 
E 160 474 4 
E 161 189 10 
E 161 203 6 
E 161 246 3 
E 161 302 9 
E 161 397 4 
E 161 398 2 
E 161 407 2 
E 161 478 4 
E 162 303 8 
E 162 345 9 
E 163 195 8 
E 163 217 5 
E 163 262 3 
E 163 276 6 
E 163 287 9 
E 163 353 1 
E 163 359 1 
E 163 365 3 
E 163 390 4 
E 163 400 4 
E 163 422 5 
E 163 429 5 
E 163 494 9 
E 164 186 5 
E 164 225 2 
E 164 230 10 
E 164 235 8 
E 164 273 9 
E 164 277 4 
E 164 308 5 
E 164 375 8 
E 164 437 7 
E 164 492 9 
E 164 493 2 
E 165 180 4 
E 165 328 6 
E 165 357 1 
E 165 390 1 
E 165 494 4 
E 166 204 6 
E 166 239 10 
E 166 250 5 
E 166 297 3 
E 166 331 7 
E 166 382 1 
E 166 394 4 
E 166 489 4 
E 166 499 2 
E 167 183 7 
E 167 190 6 
E 167 214 8 
E 167 234 8 
E 167 257 1 
E 167 279 7 
E 167 368 9 
E 167 376 5 
E 167 380 5 
E 167 406 9 
E 167 488 3 
E 168 235 10 
E 168 347 4 
E 168 354 5 
E 168 359 4 
E 168 396 6 
E 169 182 5 
E 169 200 3 
E 169 221 4 
E 169 223 6 
E 169 232 3 
E 169 236 2 
E 169 260 9 
E 169 271 3 
E 169 308 6 
E 169 419 4 
E 169 437 3 
E 170 208 3 
E 170 222 2 
E 170 250 7 
E 170 297 9 
E 170 342 7 
E 170 391 8 
E 170 413 9 
E 170 414 6 
E 171 405 2 
E 171 410 7 
E 171 426 4 
E 171 459 2 
E 171 490 1 
E 172 223 1 
E 172 390 6 
E 172 396 6 
E 172 440 1 
E 173 291 4 
E 173 299 9 
E 173 310 10 
E 173 322 1 
E 173 353 8 
E 173 364 7 
E 173 466 6 
E 173 491 8 
E 173 494 3 
E 174 220 8 
E 174 221 1 
E 174 288 5 
E 174 314 10 
E 174 342 1 
E 174 445 9 
E 175 223 8 
E 175 255 3 
E 175 265 9 
E 175 303 3 
E 175 340 3 
E 175 375 8 
E 175 376 9 
E 175 475 3 
E 176 219 9 
E 176 254 3 
E 176 323 1 
E 176 365 8 
E 176 431 5 
E 176 489 6 
E 177 192 10 
E 177 376 1 
E 177 399 6 
E 178 212 3 
E 178 232 4 
E 178 257 4 
E 178 419 8 
E 178 453 3 
E 178 466 1 
E 178 490 8 
E 179 213 1 
E 179 254 3 
E 179 260 10 
E 179 276 4 
E 179 326 8 
E 179 414 8 
E 179 444 7 
E 179 483 4 
E 180 191 8 
E 180 308 2 
E 180 311 2 
E 180 412 10 
E 180 434 1 
E 181 204 8 
E 181 285 2 
E 181 307 10 
E 181 360 5 
E 181 437 3 
E 181 444 10 
E 181 458 8 
E 182 199 10 
E 182 263 4 
E 182 348 5 
E 182 375 6 
E 182 394 2 
E 182 403 9 
E 182 433 1 
E 183 227 2 
E 183 291 3 
E 183 338 8 
E 183 346 3 
E 183 415 6 
E 184 243 4 
E 184 283 2 
E 184 318 6 
E 184 329 6 
E 184 359 8 
E 184 363 3 
E 184 400 3 
E 184 405 9 
E 185 186 4 
E 185 249 5 
E 185 285 2 
E 185 398 4 
E 185 416 9 
E 185 481 2 
E 186 285 7 
E 186 351 2 
E 186 423 5 
E 186 424 8 
E 186 435 2 
E 186 458 10 
E 186 462 3 
E 186 480 1 
E 187 194 10 
E 187 197 6 
E 187 232 1 
E 187 238 8 
E 187 285 10 
E 187 367 8 
E 187 480 3 
E 188 284 6 
E 188 321 9 
E 188 425 8 
E 188 453 3 
E 188 492 10 
E 189 204 5 
E 189 250 9 
E 189 273 10 
E 189 329 6 
E 189 393 1 
E 189 479 5 
E 190 219 6 
E 190 257 8 
E 190 284 1 
E 190 383 1 
E 190 388 9 
E 190 456 9 
E 190 457 6 
E 191 199 3 
E 191 259 6 
E 191 331 10 
E 191 376 6 
E 191 414 6 
E 191 448 5 
E 191 450 4 
E 192 255 3 
E 192 324 10 
E 192 449 6 
E 192 471 2 
E 193 203 5 
E 193 234 6 
E 193 284 6 
E 193 299 8 
E 193 446 4 
E 193 456 5 
E 193 483 6 
E 194 304 5 
E 194 311 6 
E 194 329 6 
E 194 332 6 
E 194 334 8 
E 194 467 3 
E 194 500 1 
E 195 206 10 
E 195 342 10 
E 195 366 5 
E 196 248 3 
E 196 270 6 
E 196 353 6 
E 196 469 7 
E 197 304 10 
E 197 339 9 
E 197 383 8 
E 197 393 1 
E 197 394 7 
E 197 413 1 
E 197 442 10 
E 197 481 4 
E 198 264 8 
E 198 290 6 
E 198 393 5 
E 198 436 7 
E 199 202 8 
E 199 296 3 
E 199 413 9 
E 199 476 2 
E 200 236 5 
E 200 241 4 
E 200 246 8 
E 200 253 5 
E 200 269 10 
E 200 313 9 
E 200 316 3 
E 200 397 3 
E 200 495 9 
E 200 497 2 
E 201 391 5 
E 201 407 5 
E 201 452 10 
E 202 217 3 
E 202 288 2 
E 202 354 10 
E 202 360 10 
E 202 416 8 
E 203 208 10 
E 203 225 5 
E 203 313 6 
E 203 376 10 
E 203 444 9 
E 204 210 2 
E 204 222 4 
E 204 298 6 
E 204 356 5 
E 204 420 2 
E 204 479 10 
E 205 254 2 
E 205 384 9 
E 205 393 2 
E 205 410 4 
E 206 236 4 
E 206 438 1 
E 206 443 5 
E 206 490 5 
E 207 223 7 
E 207 338 8 
E 207 341 4 
E 207 356 6 
E 207 402 5 
E 207 404 1 
E 207 455 8 
E 207 477 8 
E 208 212 8 
E 208 229 9 
E 208 293 6 
E 208 299 3 
E 208 378 1 
E 208 414 2 
E 208 487 10 
E 209 222 8 
E 209 225 6 
E 209 244 2 
E 210 271 3 
E 210 381 4 
E 210 393 1 
E 210 408 5 
E 210 436 1 
E 211 246 1 
E 211 286 9 
E 211 311 5 
E 211 323 8 
E 211 371 9 
E 211 386 7 
E 211 447 1 
E 212 292 9 
E 212 304 4 
E 213 216 9 
E 213 249 4 
E 213 264 8 
E 213 282 2 
E 213 283 1 
E 213 390 9 
E 214 337 10 
E 214 348 6 
E 214 392 9 
E 214 406 4 
E 214 449 9 
E 214 457 7 
E 214 473 10 
E 215 251 10 
E 215 360 6 
E 215 425 2 
E 216 270 3 
E 216 304 10 
E 216 311 9 
E 216 328 4 
E 216 359 5 
E 216 387 8 
E 216 410 6 
E 217 219 7 
E 217 232 10 
E 217 242 10 
E 217 283 4 
E 217 293 6 
E 217 297 1 
E 217 311 5 
E 217 334 3 
E 218 267 9 
E 218 275 3 
E 218 317 10 
E 218 339 1 
E 219 292 4 
E 219 311 10 
E 219 411 7 
E 219 437 5 
E 220 275 7 
E 220 314 10 
E 220 319 3 
E 220 332 8 
E 220 374 8 
E 220 393 3 
E 220 399 10 
E 220 404 2 
E 220 409 9 
E 220 423 2 
E 220 449 10 
E 220 470 3 
E 220 477 10 
E 221 239 7 
E 221 293 3 
E 221 323 6 
E 221 373 10 
E 221 381 10 
E 222 237 3 
E 222 280 4 
E 222 321 2 
E 222 334 5 
E 222 365 6 
E 222 394 6 
E 222 432 6 
E 222 449 2 
E 222 451 7 
E 222 493 3 
E 223 264 9 
E 223 348 10 
E 223 407 5 
E 224 333 5 
E 224 334 2 
E 224 408 3 
E 225 253 6 
E 225 455 1 
E 225 458 9 
E 226 228 3 
E 226 376 6 
E 226 440 3 
E 227 236 8 
E 227 291 4 
E 227 384 2 
E 227 447 5 
E 228 283 2 
E 228 287 5 
E 228 316 10 
E 228 317 4 
E 228 348 5 
E 228 362 8 
E 228 373 4 
E 228 421 9 
E 229 314 1 
E 229 336 1 
E 229 356 6 
E 229 401 2 
E 229 448 4 
E 230 429 2 
E 231 233 8 
E 231 247 10 
E 231 250 1 
E 231 324 10 
E 231 371 8 
E 231 384 9 
E 231 398 6 
E 232 235 9 
E 232 247 1 
E 232 267 9 
E 232 382 4 
E 232 457 1 
E 232 474 3 
E 233 238 10 
E 233 291 2 
E 233 300 5 
E 234 257 7 
E 234 267 5 
E 234 403 1 
E 235 262 3 
E 235 273 2 
E 235 290 8 
E 235 316 1 
E 235 349 5 
E 235 389 10 
E 235 452 8 
E 235 478 5 
E 236 331 10 
E 236 339 3 
E 236 348 9 
E 236 400 6 
E 237 278 2 
E 237 387 4 
E 237 482 2 
E 238 251 3 
E 238 269 2 
E 238 323 10 
E 238 498 6 
E 239 261 2 
E 239 333 10 
E 239 365 4 
E 239 383 4 
E 239 406 5 
E 239 426 7 
E 239 470 8 
E 239 474 7 
E 239 490 10 
E 239 500 5 
E 240 338 6 
E 240 377 4 
E 240 400 7 
E 240 420 5 
E 240 487 4 
E 241 252 8 
E 241 323 7 
E 241 379 7 
E 241 460 10 
E 242 355 7 
E 242 369 5 
E 242 435 4 
E 243 247 6 
E 243 276 6 
E 243 287 8 
E 243 348 4 
E 243 400 3 
E 243 499 4 
E 244 267 6 
E 244 326 8 
E 244 363 4 
E 244 469 10 
E 245 277 3 
E 245 301 3 
E 245 319 4 
E 245 326 6 
E 245 376 2 
E 246 262 4 
E 246 270 6 
E 246 283 9 
E 246 292 1 
E 246 338 1 
E 246 421 8 
E 246 455 10 
E 246 461 3 
E 247 264 6 
E 247 277 7 
E 247 304 2 
E 247 322 3 
E 247 330 5 
E 247 340 2 
E 247 346 2 
E 247 425 6 
E 247 449 7 
E 247 490 2 
E 248 299 2 
E 248 335 4 
E 248 352 9 
E 248 358 5 
E 248 398 6 
E 248 465 6 
E 249 260 6 
E 249 267 3 
E 249 271 9 
E 249 281 3 
E 249 312 5 
E 249 331 6 
E 249 341 4 
E 249 377 9 
E 249 384 3 
E 249 401 6 
E 249 414 5 
E 249 422 8 
E 250 253 7 
E 250 290 1 
E 250 303 1 
E 250 361 3 
E 250 382 9 
E 250 420 10 
E 250 491 1 
E 250 499 1 
E 251 291 2 
E 251 315 5 
E 252 296 9 
E 252 330 10 
E 252 389 8 
E 252 431 1 
E 253 356 8 
E 253 364 10 
E 253 411 4 
E 253 474 3 
E 254 286 8 
E 254 407 3 
E 254 410 4 
E 255 341 10 
E 255 400 3 
E 255 466 2 
E 256 264 5 
E 256 315 3 
E 256 446 1 
E 256 466 8 
E 256 469 2 
E 256 475 4 
E 257 285 10 
E 257 299 8 
E 257 345 4 
E 257 360 4 
E 257 455 2 
E 257 460 4 
E 257 469 4 
E 258 261 9 
E 258 374 4 
E 258 397 2 
E 258 445 8 
E 258 460 8 
E 259 279 7 
E 259 395 3 
E 259 438 10 
E 259 500 9 
E 260 340 10 
E 260 456 1 
E 260 465 4 
E 260 466 4 
E 260 480 8 
E 260 481 5 
E 260 483 10 
E 261 288 4 
E 261 309 10 
E 261 318 2 
E 261 341 7 
E 261 391 3 
E 262 290 6 
E 262 411 7 
E 262 426 10 
E 262 479 10 
E 263 299 5 
E 263 341 5 
E 263 342 7 
E 263 398 8 
E 263 423 1 
E 263 440 8 
E 263 444 6 
E 263 482 8 
E 264 270 1 
E 264 296 1 
E 264 324 7 
E 264 343 2 
E 264 421 3 
E 265 298 3 
E 265 322 2 
E 265 342 7 
E 265 380 8 
E 265 413 3 
E 265 456 2 
E 266 324 2 
E 266 348 4 
E 266 349 2 
E 266 379 9 
E 266 455 3 
E 267 268 10 
E 267 285 5 
E 267 326 2 
E 267 368 8 
E 267 412 10 
E 267 499 1 
E 268 278 3 
E 268 353 7 
E 268 380 1 
E 268 387 3 
E 268 434 6 
E 268 470 6 
E 269 308 10 
E 269 319 2 
E 269 381 2 
E 269 396 8 
E 269 413 7 
E 269 416 1 
E 269 420 4 
E 270 409 9 
E 271 276 2 
E 271 281 5 
E 271 329 5 
E 272 304 2 
E 272 306 9 
E 272 378 1 
E 272 381 10 
E 272 431 7 
E 272 463 10 
E 272 481 4 
E 273 317 1 
E 273 414 1 
E 273 416 7 
E 273 470 10 
E 274 333 5 
E 274 343 5 
E 274 429 3 
E 275 381 5 
E 275 417 5 
E 275 421 4 
E 275 432 3 
E 275 483 2 
E 276 328 9 
E 276 367 3 
E 276 405 6 
E 277 315 7 
E 277 381 5 
E 277 410 7 
E 277 412 3 
E 277 414 2 
E 277 427 7 
E 277 431 6 
E 277 441 2 
E 278 320 2 
E 278 329 8 
E 278 362 10 
E 278 368 10 
E 278 413 7 
E 278 433 5 
E 278 482 3 
E 279 366 2 
E 279 401 1 
E 279 444 10 
E 280 306 2 
E 280 420 6 
E 280 452 7 
E 280 472 10 
E 281 302 2 
E 281 328 10 
E 281 338 8 
E 281 377 9 
E 281 447 8 
E 281 468 8 
E 281 476 8 
E 282 300 4 
E 282 305 10 
E 282 329 8 
E 282 334 6 
E 282 365 2 
E 282 412 3 
E 282 438 7 
E 283 353 10 
E 283 371 6 
E 283 393 2 
E 283 407 10 
E 283 429 2 
E 283 433 9 
E 283 439 6 
E 283 463 10 
E 283 476 5 
E 284 295 9 
E 284 326 9 
E 284 340 10 
E 284 428 2 
E 284 483 4 
E 285 313 6 
E 285 441 1 
E 285 454 2 
E 285 471 3 
E 285 494 3 
E 286 436 10 
E 286 447 1 
E 286 497 2 
E 287 338 6 
E 287 348 9 
E 287 358 8 
E 287 445 8 
E 288 384 10 
E 288 408 7 
E 288 444 9 
E 289 351 9 
E 289 454 10 
E 289 459 4 
E 290 300 9 
E 290 372 4 
E 290 467 1 
E 291 298 10 
E 292 382 5 
E 292 424 6 
E 292 443 7 
E 292 472 1 
E 293 352 1 
E 293 412 3 
E 293 417 9 
E 293 469 1 
E 294 334 9 
E 294 359 1 
E 294 398 3 
E 294 454 6 
E 294 473 10 
E 295 297 8 
E 295 302 9 
E 295 450 9 
E 296 326 6 
E 296 332 5 
E 296 365 1 
E 296 425 1 
E 296 467 1 
E 297 464 1 
E 298 304 6 
E 298 383 1 
E 298 467 4 
E 298 497 10 
E 299 351 2 
E 299 357 9 
E 299 384 2 
E 299 429 8 
E 300 301 9 
E 300 302 3 
E 300 412 4 
E 300 432 6 
E 300 443 4 
E 300 449 2 
E 301 431 1 
E 301 486 10 
E 302 343 4 
E 302 410 1 
E 302 442 4 
E 303 323 5 
E 303 359 7 
E 303 374 10 
E 303 412 5 
E 303 467 2 
E 304 325 6 
E 304 387 10 
E 304 408 8 
E 304 422 2 
E 304 437 6 
E 305 347 5 
E 305 365 8 
E 305 448 7 
E 305 492 6 
E 305 494 3 
E 306 343 6 
E 306 353 7 
E 306 475 5 
E 307 346 4 
E 307 353 8 
E 307 391 7 
E 307 396 3 
E 307 478 6 
E 308 374 3 
E 308 400 4 
E 308 437 4 
E 308 450 8 
E 309 393 9 
E 310 368 4 
E 310 389 8 
E 311 314 5 
E 311 352 1 
E 311 450 3 
E 312 380 4 
E 312 402 8 
E 312 441 1 
E 312 484 10 
E 312 485 2 
E 314 355 1 
E 314 358 7 
E 314 407 2 
E 314 467 6 
E 315 417 7 
E 316 417 3 
E 316 428 10 
E 317 497 1 
E 318 377 2 
E 318 393 7 
E 318 465 9 
E 318 469 8 
E 318 490 1 
E 319 375 1 
E 319 424 2 
E 320 339 10 
E 320 377 6 
E 320 419 1 
E 320 440 2 
E 321 440 9 
E 322 353 8 
E 322 365 8 
E 322 414 5 
E 322 431 1 
E 322 457 1 
E 322 476 4 
E 323 451 5 
E 323 480 3 
E 323 499 6 
E 324 351 6 
E 324 388 1 
E 324 496 9 
E 326 329 7 
E 326 457 10 
E 326 465 5 
E 326 475 7 
E 326 485 5 
E 326 488 7 
E 326 497 7 
E 327 335 6 
E 327 353 4 
E 327 385 10 
E 327 433 2 
E 327 456 7 
E 329 348 2 
E 329 382 1 
E 330 393 1 
E 330 416 2 
E 331 353 8 
E 332 352 5 
E 332 377 5 
E 333 336 2 
E 333 347 10 
E 333 353 1 
E 333 391 8 
E 333 404 6 
E 334 341 1 
E 334 350 9 
E 334 487 3 
E 335 351 10 
E 335 355 3 
E 335 369 10 
E 335 381 9 
E 335 446 1 
E 335 450 3 
E 335 469 1 
E 336 352 10 
E 336 395 3 
E 336 411 10 
E 337 340 5 
E 337 426 10 
E 337 443 1 
E 337 459 9 
E 337 480 5 
E 337 496 2 
E 338 346 3 
E 338 395 8 
E 338 448 10 
E 338 486 5 
E 338 492 10 
E 339 451 3 
E 340 371 6 
E 340 424 1 
E 340 485 1 
E 341 355 5 
E 341 455 2 
E 341 477 9 
E 341 493 7 
E 342 435 7 
E 343 400 2 
E 343 460 2 
E 343 472 8 
E 344 365 3 
E 344 438 6 
E 344 484 10 
E 345 483 3 
E 346 452 2 
E 346 492 1 
E 346 498 2 
E 347 350 5 
E 347 366 1 
E 347 383 10 
E 347 406 7 
E 347 475 7 
E 347 497 2 
E 348 355 3 
E 348 377 1 
E 348 395 6 
E 348 409 8 
E 348 414 2 
E 348 450 7 
E 349 423 2 
E 349 446 4 
E 350 378 8 
E 350 380 10 
E 350 391 8 
E 350 423 1 
E 350 430 1 
E 350 458 8 
E 350 483 5 
E 351 381 4 
E 351 422 10 
E 351 430 10 
E 351 437 4 
E 351 438 4 
E 351 481 2 
E 351 493 8 
E 352 373 3 
E 352 407 2 
E 352 454 7 
E 352 470 2 
E 352 474 6 
E 352 477 8 
E 353 364 6 
E 353 392 4 
E 353 460 4 
E 354 365 10 
E 354 461 2 
E 355 416 9 
E 355 420 1 
E 355 479 2 
E 356 360 5 
E 357 426 3 
E 357 432 2 
E 358 387 10 
E 358 395 5 
E 358 483 9 
E 359 373 3 
E 359 479 6 
E 360 362 7 
E 361 443 1 
E 361 446 7 
E 361 464 6 
E 361 481 8 
E 361 482 6 
E 361 495 8 
E 362 375 9 
E 362 385 4 
E 362 391 7 
E 362 399 4 
E 362 461 3 
E 363 449 1 
E 363 484 7 
E 363 494 6 
E 364 416 2 
E 364 440 1 
E 365 468 7 
E 366 385 5 
E 366 387 8 
E 366 458 1 
E 367 406 2 
E 367 433 6 
E 369 383 7 
E 369 418 1 
E 369 424 1 
E 370 381 7 
E 370 402 2 
E 370 410 4 
E 371 487 6 
E 372 403 3 
E 372 413 9 
E 373 378 6 
E 373 423 6 
E 373 443 1 
E 373 451 10 
E 373 467 3 
E 374 417 6 
E 374 489 3 
E 375 500 3 
E 376 418 10 
E 376 466 3 
E 377 395 7 
E 377 439 9 
E 379 400 9 
E 379 427 4 
E 379 434 10 
E 379 500 5 
E 380 394 10 
E 380 436 5 
E 380 475 5 
E 380 479 2 
E 380 495 5 
E 381 433 2 
E 382 388 5 
E 382 444 1 
E 382 500 6 
E 383 427 3 
E 383 448 9 
E 384 423 2 
E 384 428 2 
E 384 443 5 
E 385 393 4 
E 385 412 9 
E 385 480 3 
E 385 500 1 
E 386 392 4 
E 386 393 5 
E 386 487 6 
E 387 462 5 
E 388 406 8 
E 389 430 10 
E 390 395 7 
E 390 452 2 
E 390 492 6 
E 391 416 8 
E 392 409 2 
E 392 410 7 
E 393 411 9 
E 394 401 10 
E 394 446 10 
E 394 469 9 
E 395 463 7 
E 397 446 7 
E 398 457 9 
E 399 463 1 
E 400 449 1 
E 400 457 1 
E 401 410 8 
E 401 438 7 
E 402 403 4 
E 404 437 10 
E 404 441 2 
E 404 448 4 
E 406 463 2 
E 406 464 5 
E 407 435 3 
E 407 459 6 
E 407 492 2 
E 409 494 3 
E 410 440 2 
E 411 438 9 
E 411 486 5 
E 412 419 2 
E 412 424 6 
E 412 427 9 
E 412 456 1 
E 412 490 5 
E 412 495 9 
E 413 417 4 
E 414 454 2 
E 415 453 1 
E 417 436 5 
E 418 420 6 
E 418 451 2 
E 419 423 7 
E 420 462 2 
E 420 484 10 
E 422 424 6 
E 424 456 8 
E 424 478 4 
E 424 499 4 
E 425 454 7 
E 426 468 8 
E 427 454 3 
E 427 457 1 
E 428 445 10 
E 429 459 3 
E 430 444 7 
E 430 446 2 
E 430 479 5 
E 430 494 7 
E 432 461 4 
E 433 482 4 
E 434 437 8 
E 434 458 8 
E 437 443 9 
E 437 453 3 
E 437 497 1 
E 438 487 2 
E 440 451 9 
E 440 470 3 
E 442 448 10 
E 442 462 8 
E 442 475 6 
E 443 459 10 
E 444 477 10 
E 446 488 5 
E 446 490 3 
E 447 473 8 
E 447 490 7 
E 448 483 7 
E 450 481 2 
E 453 499 8 
E 455 457 2 
E 455 494 2 
E 456 480 7 
E 458 465 9 
E 458 470 8 
E 458 488 5 
E 460 488 4 
E 465 477 8 
E 466 477 1 
E 467 500 1 
E 468 482 8 
E 468 486 3 
E 468 496 9 
E 469 486 9 
E 470 472 9 
E 471 476 8 
E 471 479 9 
E 471 499 1 
E 473 492 1 
E 476 484 10 
E 477 482 10 
E 477 498 4 
E 479 485 1 
E 482 494 8 
E 483 487 9 
E 491 496 8 
E 491 498 6 
END 

SECTION ProfitableVertices 
ProfitableVertices 250 
PV 1 7
PV 3 3
PV 4 3
PV 7 7
PV 9 5
PV 11 2
PV 12 6
PV 15 4
PV 17 1
PV 19 3
PV 20 8
PV 23 6
PV 24 8
PV 26 2
PV 27 3
PV 29 6
PV 30 3
PV 31 7
PV 32 6
PV 33 4
PV 35 8
PV 38 6
PV 39 6
PV 42 3
PV 43 1
PV 48 2
PV 50 1
PV 51 8
PV 57 8
PV 58 6
PV 62 8
PV 64 7
PV 66 7
PV 67 9
PV 69 8
PV 70 5
PV 71 7
PV 75 7
PV 76 9
PV 77 3
PV 78 7
PV 79 4
PV 81 2
PV 83 6
PV 84 1
PV 86 8
PV 89 5
PV 90 7
PV 91 9
PV 93 1
PV 94 5
PV 96 3
PV 98 4
PV 103 6
PV 106 4
PV 110 9
PV 111 9
PV 112 6
PV 113 1
PV 115 1
PV 119 6
PV 121 9
PV 127 1
PV 131 1
PV 132 8
PV 134 3
PV 136 9
PV 137 7
PV 139 4
PV 140 9
PV 143 8
PV 146 9
PV 147 4
PV 148 4
PV 154 3
PV 156 3
PV 157 7
PV 158 8
PV 160 2
PV 162 4
PV 164 5
PV 165 8
PV 167 1
PV 168 9
PV 172 9
PV 173 9
PV 175 4
PV 176 7
PV 178 4
PV 179 6
PV 185 6
PV 188 2
PV 191 2
PV 195 1
PV 196 9
PV 198 5
PV 202 9
PV 205 2
PV 208 1
PV 209 3
PV 210 7
PV 212 8
PV 213 6
PV 216 7
PV 217 1
PV 219 9
PV 221 2
PV 222 8
PV 223 7
PV 227 6
PV 229 6
PV 233 3
PV 234 9
PV 238 1
PV 239 2
PV 242 2
PV 246 8
PV 247 6
PV 249 1
PV 252 8
PV 253 5
PV 255 1
PV 258 6
PV 259 4
PV 262 7
PV 263 3
PV 265 8
PV 267 5
PV 268 1
PV 269 9
PV 270 6
PV 271 3
PV 272 8
PV 274 7
PV 276 7
PV 277 3
PV 278 3
PV 279 2
PV 280 6
PV 281 1
PV 284 6
PV 286 4
PV 289 4
PV 290 6
PV 292 9
PV 293 3
PV 298 1
PV 300 1
PV 302 2
PV 303 4
PV 304 9
PV 306 7
PV 307 1
PV 308 5
PV 310 6
PV 313 2
PV 316 3
PV 318 4
PV 320 7
PV 321 8
PV 325 2
PV 326 4
PV 327 5
PV 330 6
PV 331 9
PV 332 4
PV 334 2
PV 340 4
PV 342 8
PV 344 5
PV 347 2
PV 348 1
PV 349 7
PV 351 7
PV 352 5
PV 354 7
PV 355 6
PV 356 3
PV 358 4
PV 359 5
PV 360 7
PV 361 3
PV 364 2
PV 366 2
PV 367 3
PV 368 9
PV 369 5
PV 374 3
PV 375 9
PV 376 7
PV 379 1
PV 380 4
PV 382 9
PV 385 2
PV 386 1
PV 387 1
PV 388 4
PV 390 5
PV 391 7
PV 393 4
PV 394 9
PV 396 6
PV 397 6
PV 399 1
PV 406 3
PV 410 9
PV 413 5
PV 414 1
PV 415 3
PV 417 5
PV 424 3
PV 425 7
PV 426 4
PV 427 6
PV 429 4
PV 431 2
PV 435 9
PV 437 3
PV 438 2
PV 440 7
PV 446 9
PV 447 5
PV 449 6
PV 451 8
PV 452 8
PV 454 9
PV 455 5
PV 456 2
PV 458 9
PV 460 5
PV 463 7
PV 464 1
PV 465 2
PV 467 6
PV 469 3
PV 470 1
PV 473 3
PV 482 1
PV 484 7
PV 486 4
PV 488 7
PV 490 9
PV 491 5
PV 492 6
PV 494 6
PV 495 1
PV 496 4
PV 497 4
PV 498 2
PV 499 8
END 

EOF 
